
  22    4
  10   10   10   10

   0   0   0   0   0   5 2 3 4 5 6 
   4  10  10  10  10   5 16 15 12 8 7 
   8  10  10  10  10   5 16 15 12 11 8 
   4  10  10  10  10   5 16 15 12 9 7 
   7  10  10  10  10   6 16 15 12 11 10 9 
   7  10  10  10  10   6 18 15 14 13 12 11 
   8  10  10  10  10   4 18 14 13 11 
   7  10  10  10  10   2 14 9 
   5  10  10  10  10   4 20 19 18 13 
   3  10  10  10  10   4 21 20 18 17 
   1  10  10  10  10   2 20 19 
   3  10  10  10  10   2 19 17 
  10  10  10  10  10   1 21 
  10  10  10  10  10   1 17 
   3  10  10  10  10   1 17 
   6  10  10  10  10   1 18 
  10  10  10  10  10   1 22
   1  10  10  10  10   1 22
   9  10  10  10  10   1 22
   2  10  10  10  10   1 22
   7  10  10  10  10   1 22
   0   0   0   0   0   0 
